
Gurobi 8.1.0 (win64, Python) logging started 11/17/21 16:18:48

Academic license - for non-commercial use only
Optimize a model with 288 rows, 307 columns and 1130 nonzeros
Variable types: 280 continuous, 27 integer (0 binary)
Coefficient statistics:
  Matrix range     [5e-05, 5e+01]
  Objective range  [1e+00, 1e+00]
  Bounds range     [1e+00, 1e+00]
  RHS range        [1e+00, 5e+01]
Presolve removed 282 rows and 302 columns
Presolve time: 0.00s
Presolved: 6 rows, 5 columns, 19 nonzeros
Variable types: 5 continuous, 0 integer (0 binary)

Root relaxation: objective 1.000000e+00, 4 iterations, 0.00 seconds

    Nodes    |    Current Node    |     Objective Bounds      |     Work
 Expl Unexpl |  Obj  Depth IntInf | Incumbent    BestBd   Gap | It/Node Time

*    0     0               0       1.0000000    1.00000  0.00%     -    0s

Explored 0 nodes (4 simplex iterations) in 0.01 seconds
Thread count was 12 (of 12 available processors)

Solution count 1: 1 

Optimal solution found (tolerance 1.00e-04)
Best objective 1.000000000000e+00, best bound 1.000000000000e+00, gap 0.0000%

Gurobi 8.1.0 (win64, Python) logging started 11/17/21 18:49:24

Academic license - for non-commercial use only
Optimize a model with 288 rows, 307 columns and 1130 nonzeros
Variable types: 280 continuous, 27 integer (0 binary)
Coefficient statistics:
  Matrix range     [5e-05, 5e+01]
  Objective range  [1e+00, 1e+00]
  Bounds range     [1e+00, 1e+00]
  RHS range        [1e+00, 5e+01]
Presolve removed 282 rows and 302 columns
Presolve time: 0.00s
Presolved: 6 rows, 5 columns, 19 nonzeros
Variable types: 5 continuous, 0 integer (0 binary)

Root relaxation: objective 1.000000e+00, 4 iterations, 0.00 seconds

    Nodes    |    Current Node    |     Objective Bounds      |     Work
 Expl Unexpl |  Obj  Depth IntInf | Incumbent    BestBd   Gap | It/Node Time

*    0     0               0       1.0000000    1.00000  0.00%     -    0s

Explored 0 nodes (4 simplex iterations) in 0.01 seconds
Thread count was 12 (of 12 available processors)

Solution count 1: 1 

Optimal solution found (tolerance 1.00e-04)
Best objective 1.000000000000e+00, best bound 1.000000000000e+00, gap 0.0000%
Optimize a model with 288 rows, 307 columns and 1130 nonzeros
Variable types: 280 continuous, 27 integer (0 binary)
Coefficient statistics:
  Matrix range     [5e-05, 5e+01]
  Objective range  [1e+00, 1e+00]
  Bounds range     [1e+00, 1e+00]
  RHS range        [1e+00, 5e+01]
Presolve removed 282 rows and 302 columns
Presolve time: 0.00s
Presolved: 6 rows, 5 columns, 19 nonzeros
Variable types: 5 continuous, 0 integer (0 binary)

Root relaxation: objective 1.000000e+00, 4 iterations, 0.00 seconds

    Nodes    |    Current Node    |     Objective Bounds      |     Work
 Expl Unexpl |  Obj  Depth IntInf | Incumbent    BestBd   Gap | It/Node Time

*    0     0               0       1.0000000    1.00000  0.00%     -    0s

Explored 0 nodes (4 simplex iterations) in 0.01 seconds
Thread count was 12 (of 12 available processors)

Solution count 1: 1 

Optimal solution found (tolerance 1.00e-04)
Best objective 1.000000000000e+00, best bound 1.000000000000e+00, gap 0.0000%
Optimize a model with 288 rows, 307 columns and 1130 nonzeros
Variable types: 280 continuous, 27 integer (0 binary)
Coefficient statistics:
  Matrix range     [5e-05, 5e+01]
  Objective range  [1e+00, 1e+00]
  Bounds range     [1e+00, 1e+00]
  RHS range        [1e+00, 5e+01]
Presolve removed 282 rows and 302 columns
Presolve time: 0.00s
Presolved: 6 rows, 5 columns, 19 nonzeros
Variable types: 5 continuous, 0 integer (0 binary)

Root relaxation: objective 1.000000e+00, 4 iterations, 0.00 seconds

    Nodes    |    Current Node    |     Objective Bounds      |     Work
 Expl Unexpl |  Obj  Depth IntInf | Incumbent    BestBd   Gap | It/Node Time

*    0     0               0       1.0000000    1.00000  0.00%     -    0s

Explored 0 nodes (4 simplex iterations) in 0.01 seconds
Thread count was 12 (of 12 available processors)

Solution count 1: 1 

Optimal solution found (tolerance 1.00e-04)
Best objective 1.000000000000e+00, best bound 1.000000000000e+00, gap 0.0000%
Optimize a model with 288 rows, 307 columns and 1130 nonzeros
Variable types: 280 continuous, 27 integer (0 binary)
Coefficient statistics:
  Matrix range     [5e-05, 5e+01]
  Objective range  [1e+00, 1e+00]
  Bounds range     [1e+00, 1e+00]
  RHS range        [1e+00, 5e+01]
Presolve removed 282 rows and 302 columns
Presolve time: 0.00s
Presolved: 6 rows, 5 columns, 19 nonzeros
Variable types: 5 continuous, 0 integer (0 binary)

Root relaxation: objective 1.000000e+00, 4 iterations, 0.00 seconds

    Nodes    |    Current Node    |     Objective Bounds      |     Work
 Expl Unexpl |  Obj  Depth IntInf | Incumbent    BestBd   Gap | It/Node Time

*    0     0               0       1.0000000    1.00000  0.00%     -    0s

Explored 0 nodes (4 simplex iterations) in 0.01 seconds
Thread count was 12 (of 12 available processors)

Solution count 1: 1 

Optimal solution found (tolerance 1.00e-04)
Best objective 1.000000000000e+00, best bound 1.000000000000e+00, gap 0.0000%
Optimize a model with 288 rows, 307 columns and 1130 nonzeros
Variable types: 280 continuous, 27 integer (0 binary)
Coefficient statistics:
  Matrix range     [5e-05, 5e+01]
  Objective range  [1e+00, 1e+00]
  Bounds range     [1e+00, 1e+00]
  RHS range        [1e+00, 5e+01]
Presolve removed 282 rows and 302 columns
Presolve time: 0.00s
Presolved: 6 rows, 5 columns, 19 nonzeros
Variable types: 5 continuous, 0 integer (0 binary)

Root relaxation: objective 1.000000e+00, 4 iterations, 0.00 seconds

    Nodes    |    Current Node    |     Objective Bounds      |     Work
 Expl Unexpl |  Obj  Depth IntInf | Incumbent    BestBd   Gap | It/Node Time

*    0     0               0       1.0000000    1.00000  0.00%     -    0s

Explored 0 nodes (4 simplex iterations) in 0.02 seconds
Thread count was 12 (of 12 available processors)

Solution count 1: 1 

Optimal solution found (tolerance 1.00e-04)
Best objective 1.000000000000e+00, best bound 1.000000000000e+00, gap 0.0000%
Optimize a model with 288 rows, 307 columns and 1130 nonzeros
Variable types: 280 continuous, 27 integer (0 binary)
Coefficient statistics:
  Matrix range     [5e-05, 5e+01]
  Objective range  [1e+00, 1e+00]
  Bounds range     [1e+00, 1e+00]
  RHS range        [1e+00, 5e+01]
Presolve removed 282 rows and 302 columns
Presolve time: 0.00s
Presolved: 6 rows, 5 columns, 19 nonzeros
Variable types: 5 continuous, 0 integer (0 binary)

Root relaxation: objective 1.000000e+00, 4 iterations, 0.00 seconds

    Nodes    |    Current Node    |     Objective Bounds      |     Work
 Expl Unexpl |  Obj  Depth IntInf | Incumbent    BestBd   Gap | It/Node Time

*    0     0               0       1.0000000    1.00000  0.00%     -    0s

Explored 0 nodes (4 simplex iterations) in 0.01 seconds
Thread count was 12 (of 12 available processors)

Solution count 1: 1 

Optimal solution found (tolerance 1.00e-04)
Best objective 1.000000000000e+00, best bound 1.000000000000e+00, gap 0.0000%
